n_res = 4;
rc = [ 20, 20, 13, 18 ];
n_tasks = 30;
d = [ 2, 3, 7, 1, 8, 3, 3, 2, 9, 10, 8, 6, 3, 1, 9, 7, 4, 1, 5, 9, 4, 7, 6, 5, 7, 1, 6, 4, 5, 3 ];
rr = [| 0, 2, 0, 6, 4, 0, 0, 0, 10, 7, 0, 4, 0, 0, 0, 5, 10, 0, 0, 10, 0, 3, 5, 3, 0, 4, 0, 6, 0, 5
      | 0, 0, 10, 9, 0, 10, 0, 5, 4, 0, 8, 0, 1, 0, 8, 2, 5, 1, 0, 5, 0, 6, 7, 7, 3, 0, 2, 0, 2, 0
      | 4, 1, 10, 4, 8, 0, 2, 0, 0, 0, 0, 0, 0, 0, 1, 4, 0, 5, 3, 0, 0, 0, 6, 0, 0, 0, 0, 0, 0, 9
      | 0, 1, 0, 0, 0, 0, 8, 6, 7, 4, 1, 0, 10, 8, 0, 0, 2, 0, 4, 10, 10, 0, 0, 0, 10, 0, 0, 7, 3, 6 |];
suc = [ { 2 }, 
        { 3 }, 
        { 4 }, 
        { 5 }, 
        { 6 }, 
        { 7 }, 
        { 8 }, 
        { 9 }, 
        { 10 }, 
        { 11 }, 
        { 12 }, 
        { 13 }, 
        { 14 }, 
        { 15 }, 
        { 16 }, 
        { 17 }, 
        { 18 }, 
        { 19 }, 
        { 20 }, 
        { 21 }, 
        { 22 }, 
        { 23 }, 
        { 24 }, 
        { 25 }, 
        { 26 }, 
        { 27 }, 
        { 28 }, 
        { 29 }, 
        { 30 }, 
        {  }]; 
